22      4       
20      17      11      12      
0       0       0       0       0       3       2       3       4       
9       1       0       0       0       1       7       
9       7       1       2       0       3       5       6       18      
2       0       0       0       3       3       6       9       13      
9       3       8       0       0       3       15      17      21      
2       0       8       4       2       1       12      
3       0       0       9       0       3       8       10      18      
2       5       0       0       8       1       11      
3       7       0       1       0       1       16      
6       9       2       1       0       2       16      20      
1       0       0       7       0       1       12      
1       0       1       0       9       1       14      
9       0       7       0       10      1       16      
3       7       0       3       9       1       19      
3       1       0       5       0       1       19      
6       0       10      0       0       2       19      21      
1       2       7       0       1       1       20      
6       10      0       0       0       1       20      
5       5       0       0       10      1       22      
5       9       7       3       0       1       22      
3       9       0       5       4       1       22      
0       0       0       0       0       0       